400 800
1 2 5
1 21 5
2 3 3
2 22 4
3 4 2
3 23 3
4 5 1
4 24 3
5 6 2
5 25 5
6 7 2
6 26 3
7 8 2
7 27 2
8 9 3
8 28 3
9 10 4
9 29 2
10 11 2
10 30 4
11 12 4
11 31 3
12 13 2
12 32 4
13 14 4
13 33 1
14 15 2
14 34 2
15 16 4
15 35 5
16 17 1
16 36 4
17 18 5
17 37 2
18 19 3
18 38 5
19 20 4
19 39 1
20 40 2
21 22 5
21 41 4
22 23 5
22 42 4
23 24 3
23 43 1
24 25 5
24 44 4
25 26 5
25 45 5
26 27 2
26 46 4
27 28 3
27 47 3
28 29 4
28 48 2
29 30 3
29 49 4
30 31 4
30 50 4
31 32 2
31 51 4
32 33 4
32 52 2
33 34 5
33 53 5
34 35 3
34 54 2
35 36 4
35 55 2
36 37 2
36 56 2
37 38 4
37 57 5
38 39 2
38 58 2
39 40 2
39 59 4
40 60 3
41 42 4
41 61 2
42 43 2
42 62 1
43 44 4
43 63 5
44 45 2
44 64 5
45 46 4
45 65 5
46 47 5
46 66 5
47 48 5
47 67 5
48 49 5
48 68 3
49 50 4
49 69 2
50 51 2
50 70 2
51 52 4
51 71 3
52 53 2
52 72 3
53 54 1
53 73 4
54 55 4
54 74 1
55 56 4
55 75 2
56 57 5
56 76 2
57 58 5
57 77 1
58 59 2
58 78 5
59 60 5
59 79 1
60 80 1
61 62 1
61 81 5
62 63 5
62 82 5
63 64 2
63 83 3
64 65 1
64 84 5
65 66 3
65 85 3
66 67 3
66 86 3
67 68 2
67 87 5
68 69 4
68 88 4
69 70 4
69 89 3
70 71 1
70 90 3
71 72 1
71 91 5
72 73 4
72 92 3
73 74 5
73 93 5
74 75 4
74 94 4
75 76 5
75 95 4
76 77 5
76 96 3
77 78 2
77 97 1
78 79 2
78 98 5
79 80 3
79 99 1
80 100 1
81 82 2
81 101 5
82 83 3
82 102 3
83 84 2
83 103 4
84 85 1
84 104 1
85 86 4
85 105 1
86 87 1
86 106 2
87 88 1
87 107 4
88 89 3
88 108 1
89 90 3
89 109 3
90 91 5
90 110 1
91 92 5
91 111 1
92 93 3
92 112 2
93 94 1
93 113 3
94 95 4
94 114 4
95 96 2
95 115 2
96 97 1
96 116 5
97 98 3
97 117 1
98 99 2
98 118 2
99 100 4
99 119 1
100 120 3
101 102 2
101 121 2
102 103 5
102 122 1
103 104 5
103 123 1
104 105 4
104 124 1
105 106 2
105 125 3
106 107 3
106 126 2
107 108 4
107 127 1
108 109 2
108 128 3
109 110 2
109 129 5
110 111 2
110 130 1
111 112 3
111 131 3
112 113 3
112 132 5
113 114 1
113 133 5
114 115 2
114 134 4
115 116 3
115 135 3
116 117 4
116 136 3
117 118 4
117 137 4
118 119 1
118 138 3
119 120 5
119 139 4
120 140 5
121 122 4
121 141 2
122 123 1
122 142 1
123 124 4
123 143 3
124 125 3
124 144 5
125 126 3
125 145 1
126 127 3
126 146 2
127 128 2
127 147 4
128 129 2
128 148 2
129 130 5
129 149 4
130 131 2
130 150 3
131 132 2
131 151 4
132 133 3
132 152 5
133 134 4
133 153 3
134 135 5
134 154 5
135 136 2
135 155 4
136 137 2
136 156 5
137 138 1
137 157 1
138 139 2
138 158 1
139 140 4
139 159 5
140 160 1
141 142 4
141 161 1
142 143 5
142 162 1
143 144 5
143 163 1
144 145 2
144 164 3
145 146 3
145 165 3
146 147 2
146 166 4
147 148 1
147 167 2
148 149 2
148 168 4
149 150 1
149 169 5
150 151 4
150 170 2
151 152 5
151 171 4
152 153 1
152 172 2
153 154 4
153 173 3
154 155 2
154 174 2
155 156 3
155 175 3
156 157 3
156 176 4
157 158 3
157 177 4
158 159 5
158 178 5
159 160 1
159 179 2
160 180 5
161 162 5
161 181 5
162 163 5
162 182 5
163 164 2
163 183 5
164 165 2
164 184 4
165 166 1
165 185 1
166 167 1
166 186 3
167 168 3
167 187 4
168 169 4
168 188 3
169 170 1
169 189 1
170 171 1
170 190 3
171 172 2
171 191 2
172 173 5
172 192 1
173 174 5
173 193 1
174 175 5
174 194 3
175 176 1
175 195 5
176 177 2
176 196 5
177 178 5
177 197 2
178 179 3
178 198 5
179 180 1
179 199 5
180 200 5
181 182 1
181 201 2
182 183 5
182 202 1
183 184 2
183 203 1
184 185 5
184 204 4
185 186 2
185 205 1
186 187 5
186 206 2
187 188 1
187 207 1
188 189 1
188 208 2
189 190 4
189 209 4
190 191 3
190 210 4
191 192 1
191 211 3
192 193 2
192 212 4
193 194 5
193 213 5
194 195 5
194 214 4
195 196 5
195 215 3
196 197 1
196 216 5
197 198 1
197 217 5
198 199 2
198 218 3
199 200 2
199 219 1
200 220 1
201 202 3
201 221 2
202 203 5
202 222 2
203 204 2
203 223 4
204 205 1
204 224 3
205 206 1
205 225 1
206 207 5
206 226 2
207 208 4
207 227 2
208 209 2
208 228 1
209 210 3
209 229 1
210 211 2
210 230 4
211 212 3
211 231 3
212 213 1
212 232 4
213 214 1
213 233 3
214 215 3
214 234 2
215 216 4
215 235 2
216 217 3
216 236 3
217 218 2
217 237 2
218 219 1
218 238 1
219 220 2
219 239 3
220 240 5
221 222 5
221 241 2
222 223 3
222 242 2
223 224 2
223 243 4
224 225 4
224 244 1
225 226 1
225 245 5
226 227 5
226 246 4
227 228 2
227 247 2
228 229 4
228 248 4
229 230 4
229 249 3
230 231 3
230 250 2
231 232 1
231 251 3
232 233 5
232 252 5
233 234 5
233 253 1
234 235 2
234 254 4
235 236 2
235 255 5
236 237 1
236 256 5
237 238 4
237 257 5
238 239 2
238 258 4
239 240 1
239 259 5
240 260 3
241 242 2
241 261 1
242 243 4
242 262 2
243 244 5
243 263 2
244 245 1
244 264 5
245 246 2
245 265 1
246 247 4
246 266 2
247 248 4
247 267 4
248 249 4
248 268 5
249 250 2
249 269 4
250 251 2
250 270 3
251 252 1
251 271 4
252 253 5
252 272 5
253 254 2
253 273 1
254 255 5
254 274 3
255 256 3
255 275 5
256 257 3
256 276 4
257 258 1
257 277 4
258 259 4
258 278 1
259 260 2
259 279 2
260 280 5
261 262 5
261 281 4
262 263 1
262 282 2
263 264 4
263 283 3
264 265 2
264 284 1
265 266 5
265 285 4
266 267 1
266 286 3
267 268 5
267 287 5
268 269 4
268 288 5
269 270 3
269 289 5
270 271 1
270 290 1
271 272 4
271 291 5
272 273 3
272 292 2
273 274 1
273 293 2
274 275 3
274 294 5
275 276 5
275 295 5
276 277 1
276 296 3
277 278 1
277 297 3
278 279 3
278 298 2
279 280 5
279 299 5
280 300 2
281 282 3
281 301 4
282 283 2
282 302 3
283 284 4
283 303 3
284 285 2
284 304 5
285 286 5
285 305 4
286 287 3
286 306 4
287 288 4
287 307 3
288 289 3
288 308 2
289 290 1
289 309 4
290 291 1
290 310 3
291 292 2
291 311 2
292 293 4
292 312 4
293 294 5
293 313 3
294 295 1
294 314 1
295 296 1
295 315 1
296 297 1
296 316 3
297 298 5
297 317 5
298 299 3
298 318 2
299 300 4
299 319 5
300 320 4
301 302 2
301 321 3
302 303 3
302 322 5
303 304 4
303 323 5
304 305 5
304 324 1
305 306 2
305 325 1
306 307 4
306 326 4
307 308 4
307 327 5
308 309 1
308 328 3
309 310 5
309 329 3
310 311 4
310 330 3
311 312 2
311 331 1
312 313 1
312 332 5
313 314 3
313 333 2
314 315 3
314 334 4
315 316 5
315 335 5
316 317 1
316 336 3
317 318 5
317 337 5
318 319 2
318 338 4
319 320 2
319 339 5
320 340 4
321 322 1
321 341 3
322 323 3
322 342 4
323 324 1
323 343 3
324 325 1
324 344 4
325 326 3
325 345 4
326 327 3
326 346 2
327 328 2
327 347 4
328 329 5
328 348 2
329 330 2
329 349 2
330 331 5
330 350 1
331 332 4
331 351 3
332 333 4
332 352 2
333 334 2
333 353 4
334 335 4
334 354 1
335 336 3
335 355 2
336 337 1
336 356 4
337 338 4
337 357 3
338 339 2
338 358 2
339 340 5
339 359 5
340 360 5
341 342 4
341 361 5
342 343 3
342 362 4
343 344 3
343 363 4
344 345 4
344 364 5
345 346 1
345 365 1
346 347 1
346 366 4
347 348 4
347 367 4
348 349 2
348 368 4
349 350 3
349 369 2
350 351 4
350 370 3
351 352 5
351 371 1
352 353 1
352 372 5
353 354 5
353 373 2
354 355 4
354 374 2
355 356 5
355 375 1
356 357 2
356 376 4
357 358 3
357 377 5
358 359 4
358 378 5
359 360 4
359 379 5
360 380 3
361 362 2
361 381 2
362 363 1
362 382 2
363 364 4
363 383 5
364 365 3
364 384 2
365 366 1
365 385 1
366 367 1
366 386 1
367 368 4
367 387 3
368 369 3
368 388 5
369 370 4
369 389 4
370 371 4
370 390 2
371 372 4
371 391 1
372 373 2
372 392 1
373 374 4
373 393 3
374 375 3
374 394 5
375 376 5
375 395 5
376 377 5
376 396 1
377 378 4
377 397 1
378 379 3
378 398 5
379 380 2
379 399 5
380 400 2
381 382 3
382 383 3
383 384 4
384 385 4
385 386 2
386 387 1
387 388 1
388 389 2
389 390 4
390 391 4
391 392 4
392 393 5
393 394 1
394 395 5
395 396 4
396 397 1
397 398 3
398 399 3
399 400 3
1 381 5
2 382 1
3 383 2
4 384 2
5 385 3
6 386 3
7 387 1
8 388 4
9 389 1
10 390 4
11 391 3
12 392 3
13 393 5
14 394 5
15 395 5
16 396 2
17 397 5
18 398 5
19 399 3
20 400 4
1 20 3
21 40 3
41 60 5
61 80 3
81 100 2
101 120 1
121 140 5
141 160 5
161 180 5
181 200 4
201 220 3
221 240 5
241 260 5
261 280 4
281 300 1
301 320 1
321 340 2
341 360 5
361 380 3
381 400 1
